CapLotSizing_PM/src/Instancias/TCLSLT/25i6p2m/NBB04.OUT
 CG ITER, OVMR, OVMRUB =           1   35355.8828125   35355.8828125
 CG ITER, OVMR, OVMRUB =           2   32982.6015625   32982.5976562
 CG ITER, OVMR, OVMRUB =           3   32982.5976562   32982.5976562
 CG ITER, OVMR, OVMRUB =           4   32980.4921875   32982.5976562
 CG ITER, OVMR, OVMRUB =           5   32243.7285156   32982.5976562
 CG ITER, OVMR, OVMRUB =           6   32229.9218750   32982.5976562
 CG ITER, OVMR, OVMRUB =           7   32081.0781250   32982.5976562
 CG ITER, OVMR, OVMRUB =           8   32010.0097656   32982.5976562
 CG ITER, OVMR, OVMRUB =           9   31968.1171875   32982.5976562
 CG ITER, OVMR, OVMRUB =          10   31909.7460938   32982.5976562
 CG ITER, OVMR, OVMRUB =          11   31862.1503906   32982.5976562
 CG ITER, OVMR, OVMRUB =          12   31815.6425781   32982.5976562
 CG ITER, OVMR, OVMRUB =          13   31777.8457031   32982.5976562
 CG ITER, OVMR, OVMRUB =          14   31731.5800781   32982.5976562
 CG ITER, OVMR, OVMRUB =          15   31689.1699219   32982.5976562
 CG ITER, OVMR, OVMRUB =          16   31659.4687500   32982.5976562
 CG ITER, OVMR, OVMRUB =          17   31638.4863281   32982.5976562
 CG ITER, OVMR, OVMRUB =          18   31605.9257812   32982.5976562
 CG ITER, OVMR, OVMRUB =          19   31590.8183594   32982.5976562
 CG ITER, OVMR, OVMRUB =          20   31563.0078125   32982.5976562
 CG ITER, OVMR, OVMRUB =          21   31538.6152344   32982.5976562
 CG ITER, OVMR, OVMRUB =          22   31508.6191406   32982.5976562
 CG ITER, OVMR, OVMRUB =          23   31488.1562500   32982.5976562
 CG ITER, OVMR, OVMRUB =          24   31480.1542969   32982.5976562
 CG ITER, OVMR, OVMRUB =          25   31467.1289062   32982.5976562
 CG ITER, OVMR, OVMRUB =          26   31458.2246094   32982.5976562
 CG ITER, OVMR, OVMRUB =          27   31447.0527344   32982.5976562
 CG ITER, OVMR, OVMRUB =          28   31431.1601562   32982.5976562
 CG ITER, OVMR, OVMRUB =          29   31416.7910156   32982.5976562
 CG ITER, OVMR, OVMRUB =          30   31404.8222656   32982.5976562
 CG ITER, OVMR, OVMRUB =          31   31398.7558594   32982.5976562
 CG ITER, OVMR, OVMRUB =          32   31386.1367188   32982.5976562
 CG ITER, OVMR, OVMRUB =          33   31382.9863281   32982.5976562
 CG ITER, OVMR, OVMRUB =          34   31374.6347656   32982.5976562
 CG ITER, OVMR, OVMRUB =          35   31365.7792969   32982.5976562
 CG ITER, OVMR, OVMRUB =          36   31361.8183594   32919.9101562
 CG ITER, OVMR, OVMRUB =          37   31359.5820312   32919.9101562
 CG ITER, OVMR, OVMRUB =          38   31354.9609375   32919.9101562
 CG ITER, OVMR, OVMRUB =          39   31349.1582031   32919.9101562
 CG ITER, OVMR, OVMRUB =          40   31341.2656250   32919.9101562
 CG ITER, OVMR, OVMRUB =          41   31337.5078125   32919.9101562
 CG ITER, OVMR, OVMRUB =          42   31330.0351562   32919.9101562
 CG ITER, OVMR, OVMRUB =          43   31324.9023438   32919.9101562
 CG ITER, OVMR, OVMRUB =          44   31318.0585938   32919.9101562
 CG ITER, OVMR, OVMRUB =          45   31306.8730469   32919.9101562
 CG ITER, OVMR, OVMRUB =          46   31306.9121094   32810.4023438
 CG ITER, OVMR, OVMRUB =          47   31299.3535156   32810.4023438
 CG ITER, OVMR, OVMRUB =          48   31294.4160156   32810.4023438
 CG ITER, OVMR, OVMRUB =          49   31293.2929688   32810.4023438
 CG ITER, OVMR, OVMRUB =          50   31289.7402344   32810.4023438
 CG ITER, OVMR, OVMRUB =          51   31288.6367188   32708.4062500
 CG ITER, OVMR, OVMRUB =          52   31288.3125000   32345.0136719
 CG ITER, OVMR, OVMRUB =          53   31287.2871094   32345.0136719
 CG ITER, OVMR, OVMRUB =          54   31285.1210938   32233.8183594
 CG ITER, OVMR, OVMRUB =          55   31283.4082031   32233.8183594
 CG ITER, OVMR, OVMRUB =          56   31281.7324219   32233.8183594
 CG ITER, OVMR, OVMRUB =          57   31279.8945312   32233.8183594
 CG ITER, OVMR, OVMRUB =          58   31279.2714844   32233.8183594
 CG ITER, OVMR, OVMRUB =          59   31279.3906250   32233.8183594
 CG ITER, OVMR, OVMRUB =          60   31278.5800781   32226.9042969
 CG ITER, OVMR, OVMRUB =          61   31277.4843750   31754.7187500
 CG ITER, OVMR, OVMRUB =          62   31276.8632812   31754.7187500
 CG ITER, OVMR, OVMRUB =          63   31275.8945312   31754.7187500
 CG ITER, OVMR, OVMRUB =          64   31274.8164062   31754.7187500
 CG ITER, OVMR, OVMRUB =          65   31274.1152344   31754.7187500
 CG ITER, OVMR, OVMRUB =          66   31273.7871094   31754.7187500
 CG ITER, OVMR, OVMRUB =          67   31273.5859375   31754.7187500
 CG ITER, OVMR, OVMRUB =          68   31273.4628906   31754.7187500
 CG ITER, OVMR, OVMRUB =          69   31272.6328125   31754.7187500
 CG ITER, OVMR, OVMRUB =          70   31272.7304688   31754.7187500
 CG ITER, OVMR, OVMRUB =          71   31273.2460938   31754.7187500
 CG ITER, OVMR, OVMRUB =          72   31273.1386719   31754.7187500
 CG ITER, OVMR, OVMRUB =          73   31273.2285156   31754.7187500
 CG ITER, OVMR, OVMRUB =          74   31272.4726562   31754.7187500
 CG ITER, OVMR, OVMRUB =          75   31272.6660156   31754.7187500
 CG ITER, OVMR, OVMRUB =          76   31272.8847656   31754.7187500
 CG ITER, OVMR, OVMRUB =          77   31272.8339844   31754.7187500
 CG ITER, OVMR, OVMRUB =          78   31273.1210938   31754.7187500
 CG ITER, OVMR, OVMRUB =          79   31272.8535156   31754.7187500
 CG ITER, OVMR, OVMRUB =          80   31272.8007812   31754.7187500
 CG ITER, OVMR, OVMRUB =          81   31272.8007812   31754.7187500
OVLB =   31272.8007812 OVLUB =   31754.7187500 TIME =      88.9199982
